c "185340.clq"
p edge 198 2912
e 1 17
e 1 18
e 1 19
e 1 20
e 1 21
e 1 22
e 1 23
e 1 24
e 1 26
e 1 27
e 1 29
e 1 31
e 1 35
e 1 36
e 1 37
e 1 41
e 1 42
e 1 43
e 1 45
e 1 48
e 1 51
e 1 52
e 1 59
e 1 63
e 1 64
e 1 70
e 1 73
e 1 79
e 1 87
e 1 88
e 1 89
e 1 91
e 1 92
e 1 93
e 1 100
e 1 102
e 1 106
e 1 109
e 1 116
e 1 119
e 1 126
e 1 127
e 1 128
e 1 135
e 1 136
e 1 138
e 1 146
e 1 150
e 1 153
e 1 154
e 1 163
e 1 171
e 1 174
e 1 177
e 1 191
e 2 17
e 2 18
e 2 19
e 2 21
e 2 23
e 2 24
e 2 25
e 2 26
e 2 28
e 2 29
e 2 40
e 2 46
e 2 54
e 2 55
e 2 57
e 2 63
e 2 65
e 2 68
e 2 79
e 2 86
e 2 90
e 2 96
e 2 118
e 2 133
e 2 136
e 2 141
e 2 147
e 2 155
e 2 165
e 3 17
e 3 18
e 3 19
e 3 20
e 3 21
e 3 22
e 3 31
e 3 32
e 3 35
e 3 52
e 3 57
e 3 58
e 3 66
e 3 67
e 3 75
e 3 81
e 3 82
e 3 88
e 3 91
e 3 96
e 3 110
e 3 113
e 3 114
e 3 121
e 3 127
e 3 137
e 3 155
e 3 163
e 3 164
e 3 176
e 4 17
e 4 18
e 4 19
e 4 20
e 4 21
e 4 25
e 4 26
e 4 27
e 4 28
e 4 29
e 4 31
e 4 32
e 4 34
e 4 40
e 4 41
e 4 42
e 4 44
e 4 45
e 4 50
e 4 80
e 4 84
e 4 87
e 4 95
e 4 105
e 4 106
e 4 107
e 4 118
e 4 151
e 4 154
e 4 165
e 4 168
e 4 175
e 4 180
e 4 182
e 4 193
e 5 17
e 5 18
e 5 19
e 5 20
e 5 22
e 5 24
e 5 27
e 5 29
e 5 31
e 5 33
e 5 35
e 5 37
e 5 42
e 5 46
e 5 48
e 5 49
e 5 54
e 5 55
e 5 56
e 5 57
e 5 61
e 5 62
e 5 66
e 5 67
e 5 82
e 5 83
e 5 94
e 5 100
e 5 104
e 5 108
e 5 120
e 5 129
e 5 133
e 5 135
e 5 148
e 5 152
e 5 173
e 5 176
e 5 178
e 6 17
e 6 18
e 6 19
e 6 21
e 6 24
e 6 25
e 6 29
e 6 30
e 6 31
e 6 34
e 6 36
e 6 40
e 6 45
e 6 46
e 6 47
e 6 59
e 6 64
e 6 70
e 6 71
e 6 76
e 6 86
e 6 88
e 6 95
e 6 100
e 6 109
e 6 127
e 6 130
e 6 138
e 6 145
e 6 149
e 6 154
e 6 163
e 6 165
e 6 185
e 6 197
e 7 17
e 7 18
e 7 19
e 7 20
e 7 21
e 7 25
e 7 26
e 7 27
e 7 28
e 7 34
e 7 36
e 7 38
e 7 42
e 7 47
e 7 48
e 7 50
e 7 51
e 7 53
e 7 57
e 7 65
e 7 66
e 7 70
e 7 79
e 7 85
e 7 89
e 7 94
e 7 98
e 7 102
e 7 110
e 7 114
e 7 122
e 7 123
e 7 132
e 7 160
e 7 164
e 7 167
e 7 168
e 7 175
e 7 178
e 8 17
e 8 22
e 8 23
e 8 49
e 8 81
e 8 96
e 8 101
e 8 153
e 8 167
e 8 194
e 9 17
e 9 18
e 9 19
e 9 20
e 9 21
e 9 22
e 9 23
e 9 24
e 9 25
e 9 26
e 9 27
e 9 28
e 9 32
e 9 34
e 9 37
e 9 38
e 9 39
e 9 44
e 9 47
e 9 50
e 9 51
e 9 56
e 9 57
e 9 58
e 9 63
e 9 79
e 9 84
e 9 88
e 9 91
e 9 93
e 9 109
e 9 111
e 9 118
e 9 129
e 9 139
e 9 140
e 9 152
e 9 155
e 9 161
e 9 163
e 9 167
e 9 170
e 9 177
e 9 184
e 9 185
e 10 17
e 10 18
e 10 20
e 10 21
e 10 22
e 10 23
e 10 25
e 10 26
e 10 28
e 10 30
e 10 33
e 10 36
e 10 44
e 10 48
e 10 58
e 10 59
e 10 62
e 10 67
e 10 72
e 10 84
e 10 93
e 10 94
e 10 142
e 10 152
e 10 156
e 10 159
e 10 164
e 10 173
e 10 182
e 10 198
e 11 17
e 11 18
e 11 19
e 11 20
e 11 21
e 11 22
e 11 25
e 11 26
e 11 27
e 11 29
e 11 35
e 11 36
e 11 37
e 11 39
e 11 46
e 11 47
e 11 48
e 11 49
e 11 51
e 11 52
e 11 53
e 11 57
e 11 59
e 11 61
e 11 69
e 11 72
e 11 76
e 11 78
e 11 82
e 11 84
e 11 97
e 11 98
e 11 101
e 11 113
e 11 118
e 11 119
e 11 128
e 11 132
e 11 147
e 11 153
e 11 155
e 11 156
e 11 160
e 11 161
e 11 169
e 11 179
e 11 186
e 11 193
e 12 17
e 12 18
e 12 19
e 12 20
e 12 22
e 12 23
e 12 24
e 12 26
e 12 27
e 12 29
e 12 30
e 12 39
e 12 44
e 12 47
e 12 48
e 12 49
e 12 52
e 12 54
e 12 58
e 12 59
e 12 63
e 12 67
e 12 70
e 12 72
e 12 94
e 12 95
e 12 98
e 12 105
e 12 108
e 12 114
e 12 138
e 12 143
e 12 144
e 12 145
e 12 150
e 12 155
e 12 157
e 12 158
e 12 166
e 12 178
e 12 181
e 12 196
e 13 17
e 13 18
e 13 19
e 13 20
e 13 21
e 13 22
e 13 23
e 13 24
e 13 25
e 13 27
e 13 28
e 13 30
e 13 31
e 13 32
e 13 34
e 13 35
e 13 38
e 13 41
e 13 46
e 13 48
e 13 49
e 13 50
e 13 53
e 13 56
e 13 58
e 13 62
e 13 64
e 13 71
e 13 79
e 13 84
e 13 88
e 13 92
e 13 95
e 13 104
e 13 108
e 13 113
e 13 120
e 13 122
e 13 130
e 13 141
e 13 145
e 13 147
e 13 160
e 13 171
e 13 172
e 13 184
e 13 190
e 13 195
e 14 17
e 14 18
e 14 19
e 14 20
e 14 21
e 14 22
e 14 23
e 14 24
e 14 25
e 14 26
e 14 28
e 14 30
e 14 38
e 14 45
e 14 49
e 14 60
e 14 69
e 14 74
e 14 75
e 14 77
e 14 78
e 14 82
e 14 91
e 14 98
e 14 114
e 14 120
e 14 130
e 14 142
e 14 166
e 14 180
e 14 193
e 15 17
e 15 18
e 15 19
e 15 20
e 15 21
e 15 22
e 15 23
e 15 24
e 15 28
e 15 31
e 15 33
e 15 36
e 15 37
e 15 39
e 15 55
e 15 60
e 15 65
e 15 66
e 15 71
e 15 75
e 15 76
e 15 78
e 15 81
e 15 84
e 15 87
e 15 91
e 15 121
e 15 130
e 15 131
e 15 170
e 15 198
e 16 17
e 16 18
e 16 19
e 16 20
e 16 23
e 16 29
e 16 33
e 16 56
e 16 58
e 16 102
e 16 105
e 16 112
e 16 126
e 16 174
e 17 18
e 17 19
e 17 20
e 17 21
e 17 22
e 17 23
e 17 24
e 17 25
e 17 26
e 17 27
e 17 28
e 17 29
e 17 30
e 17 31
e 17 32
e 17 33
e 17 35
e 17 36
e 17 37
e 17 39
e 17 42
e 17 44
e 17 46
e 17 48
e 17 50
e 17 51
e 17 52
e 17 55
e 17 57
e 17 60
e 17 61
e 17 64
e 17 68
e 17 70
e 17 74
e 17 75
e 17 76
e 17 77
e 17 78
e 17 81
e 17 83
e 17 90
e 17 91
e 17 95
e 17 96
e 17 97
e 17 99
e 17 100
e 17 101
e 17 107
e 17 111
e 17 113
e 17 115
e 17 125
e 17 126
e 17 131
e 17 133
e 17 138
e 17 140
e 17 143
e 17 154
e 17 158
e 17 159
e 17 166
e 17 167
e 17 171
e 17 175
e 17 177
e 17 179
e 17 181
e 17 184
e 17 186
e 17 191
e 17 192
e 17 195
e 18 19
e 18 20
e 18 21
e 18 22
e 18 23
e 18 24
e 18 25
e 18 26
e 18 27
e 18 28
e 18 29
e 18 31
e 18 32
e 18 33
e 18 34
e 18 35
e 18 36
e 18 38
e 18 39
e 18 40
e 18 41
e 18 44
e 18 47
e 18 48
e 18 59
e 18 61
e 18 62
e 18 64
e 18 67
e 18 69
e 18 72
e 18 73
e 18 76
e 18 77
e 18 82
e 18 83
e 18 89
e 18 90
e 18 91
e 18 92
e 18 94
e 18 97
e 18 108
e 18 114
e 18 115
e 18 118
e 18 121
e 18 126
e 18 127
e 18 128
e 18 130
e 18 134
e 18 139
e 18 140
e 18 141
e 18 151
e 18 157
e 18 160
e 18 164
e 18 165
e 18 177
e 18 179
e 18 182
e 18 184
e 19 20
e 19 21
e 19 22
e 19 23
e 19 24
e 19 25
e 19 26
e 19 27
e 19 28
e 19 30
e 19 32
e 19 33
e 19 34
e 19 35
e 19 38
e 19 41
e 19 43
e 19 45
e 19 46
e 19 47
e 19 48
e 19 52
e 19 58
e 19 60
e 19 62
e 19 63
e 19 66
e 19 69
e 19 74
e 19 75
e 19 76
e 19 82
e 19 83
e 19 88
e 19 92
e 19 94
e 19 97
e 19 99
e 19 101
e 19 103
e 19 107
e 19 114
e 19 115
e 19 116
e 19 120
e 19 136
e 19 139
e 19 140
e 19 143
e 19 147
e 19 158
e 19 162
e 19 169
e 19 172
e 19 180
e 19 185
e 19 190
e 19 197
e 20 21
e 20 22
e 20 23
e 20 24
e 20 26
e 20 29
e 20 30
e 20 32
e 20 35
e 20 37
e 20 38
e 20 40
e 20 41
e 20 43
e 20 51
e 20 52
e 20 53
e 20 54
e 20 56
e 20 57
e 20 59
e 20 61
e 20 71
e 20 73
e 20 76
e 20 77
e 20 81
e 20 86
e 20 92
e 20 93
e 20 101
e 20 103
e 20 104
e 20 106
e 20 107
e 20 111
e 20 112
e 20 113
e 20 114
e 20 116
e 20 117
e 20 118
e 20 122
e 20 123
e 20 125
e 20 129
e 20 131
e 20 132
e 20 134
e 20 142
e 20 145
e 20 146
e 20 147
e 20 158
e 20 165
e 20 166
e 20 182
e 20 183
e 20 188
e 20 197
e 20 198
e 21 22
e 21 23
e 21 24
e 21 25
e 21 26
e 21 27
e 21 28
e 21 29
e 21 30
e 21 31
e 21 32
e 21 34
e 21 35
e 21 37
e 21 38
e 21 39
e 21 40
e 21 42
e 21 43
e 21 45
e 21 46
e 21 47
e 21 48
e 21 52
e 21 55
e 21 56
e 21 57
e 21 59
e 21 62
e 21 68
e 21 69
e 21 70
e 21 72
e 21 73
e 21 74
e 21 76
e 21 77
e 21 78
e 21 79
e 21 83
e 21 86
e 21 97
e 21 104
e 21 105
e 21 112
e 21 114
e 21 115
e 21 116
e 21 124
e 21 126
e 21 129
e 21 133
e 21 137
e 21 140
e 21 151
e 21 152
e 21 154
e 21 156
e 21 158
e 21 160
e 21 161
e 21 179
e 21 184
e 21 187
e 21 192
e 21 195
e 22 23
e 22 24
e 22 25
e 22 26
e 22 27
e 22 28
e 22 29
e 22 30
e 22 31
e 22 32
e 22 33
e 22 35
e 22 36
e 22 37
e 22 38
e 22 39
e 22 40
e 22 42
e 22 45
e 22 47
e 22 49
e 22 53
e 22 55
e 22 56
e 22 57
e 22 60
e 22 61
e 22 62
e 22 63
e 22 64
e 22 65
e 22 67
e 22 72
e 22 78
e 22 82
e 22 86
e 22 88
e 22 90
e 22 96
e 22 103
e 22 105
e 22 110
e 22 111
e 22 113
e 22 117
e 22 118
e 22 122
e 22 125
e 22 126
e 22 127
e 22 128
e 22 140
e 22 142
e 22 143
e 22 145
e 22 151
e 22 156
e 22 157
e 22 172
e 22 173
e 22 186
e 22 188
e 22 190
e 22 193
e 22 196
e 23 24
e 23 25
e 23 26
e 23 27
e 23 28
e 23 29
e 23 30
e 23 31
e 23 32
e 23 33
e 23 35
e 23 37
e 23 38
e 23 41
e 23 43
e 23 44
e 23 50
e 23 51
e 23 54
e 23 56
e 23 58
e 23 59
e 23 61
e 23 65
e 23 66
e 23 67
e 23 70
e 23 71
e 23 72
e 23 73
e 23 74
e 23 75
e 23 77
e 23 79
e 23 82
e 23 83
e 23 85
e 23 87
e 23 91
e 23 93
e 23 96
e 23 98
e 23 101
e 23 104
e 23 106
e 23 111
e 23 112
e 23 113
e 23 117
e 23 121
e 23 125
e 23 126
e 23 127
e 23 130
e 23 133
e 23 134
e 23 135
e 23 136
e 23 138
e 23 143
e 23 144
e 23 146
e 23 149
e 23 150
e 23 165
e 23 169
e 23 170
e 23 172
e 23 174
e 23 175
e 23 181
e 23 188
e 23 189
e 23 191
e 23 194
e 23 198
e 24 25
e 24 28
e 24 29
e 24 30
e 24 33
e 24 34
e 24 37
e 24 39
e 24 40
e 24 41
e 24 43
e 24 44
e 24 48
e 24 49
e 24 50
e 24 53
e 24 54
e 24 55
e 24 58
e 24 66
e 24 70
e 24 75
e 24 78
e 24 79
e 24 80
e 24 81
e 24 83
e 24 88
e 24 89
e 24 90
e 24 92
e 24 93
e 24 96
e 24 99
e 24 100
e 24 103
e 24 107
e 24 113
e 24 115
e 24 120
e 24 127
e 24 128
e 24 147
e 24 150
e 24 151
e 24 161
e 24 169
e 24 174
e 24 183
e 24 185
e 24 189
e 24 191
e 25 27
e 25 30
e 25 31
e 25 32
e 25 33
e 25 34
e 25 35
e 25 36
e 25 38
e 25 40
e 25 42
e 25 45
e 25 46
e 25 47
e 25 48
e 25 51
e 25 52
e 25 56
e 25 58
e 25 62
e 25 67
e 25 68
e 25 70
e 25 73
e 25 77
e 25 79
e 25 80
e 25 82
e 25 84
e 25 85
e 25 86
e 25 87
e 25 88
e 25 89
e 25 93
e 25 97
e 25 98
e 25 99
e 25 106
e 25 114
e 25 118
e 25 123
e 25 126
e 25 129
e 25 131
e 25 136
e 25 140
e 25 150
e 25 153
e 25 155
e 25 157
e 25 158
e 25 160
e 25 164
e 25 165
e 25 168
e 25 170
e 25 172
e 25 174
e 25 180
e 25 181
e 25 182
e 25 187
e 26 27
e 26 31
e 26 33
e 26 34
e 26 36
e 26 37
e 26 39
e 26 41
e 26 43
e 26 45
e 26 49
e 26 51
e 26 58
e 26 61
e 26 63
e 26 78
e 26 80
e 26 98
e 26 100
e 26 103
e 26 106
e 26 110
e 26 111
e 26 112
e 26 113
e 26 117
e 26 123
e 26 135
e 26 138
e 26 140
e 26 141
e 26 148
e 26 157
e 26 159
e 26 163
e 26 165
e 26 174
e 26 182
e 26 186
e 26 187
e 26 197
e 27 28
e 27 30
e 27 31
e 27 32
e 27 33
e 27 34
e 27 35
e 27 36
e 27 37
e 27 38
e 27 42
e 27 49
e 27 50
e 27 51
e 27 53
e 27 56
e 27 57
e 27 58
e 27 60
e 27 61
e 27 64
e 27 66
e 27 73
e 27 74
e 27 81
e 27 84
e 27 88
e 27 92
e 27 105
e 27 106
e 27 109
e 27 112
e 27 116
e 27 118
e 27 120
e 27 122
e 27 123
e 27 125
e 27 129
e 27 133
e 27 135
e 27 136
e 27 137
e 27 143
e 27 147
e 27 150
e 27 151
e 27 156
e 27 159
e 27 164
e 27 173
e 27 176
e 27 178
e 27 180
e 27 181
e 27 185
e 27 191
e 28 29
e 28 30
e 28 32
e 28 35
e 28 36
e 28 37
e 28 38
e 28 39
e 28 40
e 28 42
e 28 43
e 28 49
e 28 50
e 28 53
e 28 55
e 28 57
e 28 61
e 28 66
e 28 67
e 28 68
e 28 69
e 28 70
e 28 76
e 28 79
e 28 80
e 28 83
e 28 84
e 28 86
e 28 93
e 28 94
e 28 101
e 28 106
e 28 111
e 28 118
e 28 119
e 28 120
e 28 124
e 28 127
e 28 130
e 28 131
e 28 134
e 28 135
e 28 137
e 28 139
e 28 141
e 28 144
e 28 145
e 28 149
e 28 155
e 28 157
e 28 163
e 28 164
e 28 171
e 28 172
e 28 182
e 28 183
e 28 185
e 29 30
e 29 33
e 29 34
e 29 36
e 29 38
e 29 39
e 29 40
e 29 41
e 29 42
e 29 44
e 29 46
e 29 49
e 29 50
e 29 53
e 29 54
e 29 60
e 29 63
e 29 65
e 29 69
e 29 71
e 29 72
e 29 74
e 29 75
e 29 80
e 29 83
e 29 87
e 29 89
e 29 90
e 29 94
e 29 102
e 29 103
e 29 106
e 29 112
e 29 116
e 29 123
e 29 124
e 29 126
e 29 130
e 29 132
e 29 134
e 29 135
e 29 136
e 29 138
e 29 140
e 29 145
e 29 148
e 29 151
e 29 156
e 29 160
e 29 161
e 29 166
e 29 175
e 29 178
e 29 180
e 29 192
e 30 31
e 30 32
e 30 33
e 30 34
e 30 35
e 30 37
e 30 40
e 30 41
e 30 42
e 30 44
e 30 46
e 30 47
e 30 49
e 30 50
e 30 51
e 30 56
e 30 63
e 30 75
e 30 85
e 30 89
e 30 90
e 30 94
e 30 95
e 30 100
e 30 105
e 30 108
e 30 115
e 30 116
e 30 125
e 30 129
e 30 132
e 30 137
e 30 138
e 30 144
e 30 156
e 30 161
e 30 164
e 30 179
e 31 32
e 31 33
e 31 34
e 31 36
e 31 40
e 31 43
e 31 47
e 31 48
e 31 52
e 31 53
e 31 59
e 31 64
e 31 65
e 31 68
e 31 69
e 31 70
e 31 71
e 31 75
e 31 77
e 31 78
e 31 81
e 31 83
e 31 84
e 31 85
e 31 87
e 31 90
e 31 94
e 31 95
e 31 96
e 31 97
e 31 98
e 31 102
e 31 105
e 31 110
e 31 124
e 31 144
e 31 145
e 31 147
e 31 148
e 31 153
e 31 154
e 31 155
e 31 156
e 31 160
e 31 171
e 31 178
e 31 181
e 31 192
e 31 194
e 32 36
e 32 41
e 32 42
e 32 43
e 32 45
e 32 51
e 32 53
e 32 55
e 32 57
e 32 66
e 32 70
e 32 71
e 32 72
e 32 73
e 32 76
e 32 77
e 32 84
e 32 90
e 32 91
e 32 98
e 32 110
e 32 111
e 32 116
e 32 118
e 32 119
e 32 120
e 32 126
e 32 137
e 32 138
e 32 141
e 32 158
e 32 161
e 32 163
e 32 164
e 32 171
e 32 176
e 32 179
e 32 184
e 32 192
e 32 194
e 33 34
e 33 37
e 33 38
e 33 39
e 33 41
e 33 43
e 33 47
e 33 48
e 33 55
e 33 56
e 33 60
e 33 62
e 33 66
e 33 67
e 33 71
e 33 72
e 33 86
e 33 90
e 33 97
e 33 99
e 33 100
e 33 101
e 33 118
e 33 122
e 33 146
e 33 163
e 33 174
e 33 182
e 33 186
e 33 196
e 34 38
e 34 39
e 34 40
e 34 41
e 34 42
e 34 44
e 34 47
e 34 49
e 34 52
e 34 54
e 34 55
e 34 58
e 34 60
e 34 62
e 34 64
e 34 65
e 34 66
e 34 67
e 34 68
e 34 74
e 34 80
e 34 84
e 34 90
e 34 92
e 34 93
e 34 108
e 34 111
e 34 113
e 34 114
e 34 121
e 34 129
e 34 136
e 34 143
e 34 157
e 34 160
e 34 174
e 34 175
e 34 189
e 35 39
e 35 43
e 35 44
e 35 50
e 35 52
e 35 53
e 35 57
e 35 63
e 35 64
e 35 68
e 35 69
e 35 75
e 35 78
e 35 87
e 35 91
e 35 95
e 35 97
e 35 101
e 35 102
e 35 107
e 35 112
e 35 123
e 35 125
e 35 127
e 35 129
e 35 131
e 35 132
e 35 133
e 35 134
e 35 135
e 35 137
e 35 141
e 35 143
e 35 144
e 35 154
e 35 155
e 35 158
e 35 159
e 35 165
e 35 167
e 35 172
e 35 178
e 35 191
e 35 193
e 35 194
e 35 198
e 36 44
e 36 45
e 36 50
e 36 51
e 36 58
e 36 59
e 36 61
e 36 64
e 36 67
e 36 68
e 36 81
e 36 84
e 36 92
e 36 99
e 36 103
e 36 109
e 36 114
e 36 117
e 36 131
e 36 142
e 36 145
e 36 166
e 36 171
e 36 180
e 37 39
e 37 40
e 37 43
e 37 45
e 37 50
e 37 54
e 37 55
e 37 56
e 37 59
e 37 64
e 37 65
e 37 68
e 37 75
e 37 77
e 37 78
e 37 85
e 37 89
e 37 95
e 37 97
e 37 100
e 37 107
e 37 110
e 37 119
e 37 122
e 37 123
e 37 130
e 37 133
e 37 142
e 37 148
e 37 153
e 37 169
e 37 176
e 37 177
e 37 180
e 38 41
e 38 43
e 38 44
e 38 46
e 38 47
e 38 55
e 38 60
e 38 64
e 38 71
e 38 72
e 38 73
e 38 75
e 38 85
e 38 92
e 38 94
e 38 103
e 38 104
e 38 108
e 38 109
e 38 110
e 38 116
e 38 123
e 38 129
e 38 145
e 38 149
e 38 151
e 38 153
e 38 159
e 38 163
e 38 176
e 38 179
e 39 40
e 39 41
e 39 44
e 39 46
e 39 47
e 39 53
e 39 54
e 39 58
e 39 62
e 39 66
e 39 68
e 39 71
e 39 72
e 39 74
e 39 76
e 39 77
e 39 89
e 39 100
e 39 102
e 39 103
e 39 104
e 39 116
e 39 120
e 39 121
e 39 124
e 39 125
e 39 130
e 39 134
e 39 137
e 39 142
e 39 143
e 39 145
e 39 147
e 39 153
e 39 154
e 39 157
e 39 172
e 39 173
e 39 179
e 39 181
e 39 182
e 39 187
e 39 189
e 39 192
e 40 42
e 40 43
e 40 45
e 40 46
e 40 49
e 40 50
e 40 51
e 40 59
e 40 62
e 40 63
e 40 86
e 40 91
e 40 96
e 40 113
e 40 114
e 40 117
e 40 156
e 40 158
e 40 159
e 40 171
e 40 186
e 40 187
e 41 42
e 41 43
e 41 45
e 41 46
e 41 56
e 41 65
e 41 74
e 41 75
e 41 80
e 41 82
e 41 96
e 41 100
e 41 103
e 41 112
e 41 116
e 41 121
e 41 124
e 41 134
e 41 142
e 41 145
e 41 157
e 41 182
e 41 183
e 41 198
e 42 44
e 42 45
e 42 52
e 42 57
e 42 63
e 42 64
e 42 66
e 42 73
e 42 77
e 42 81
e 42 83
e 42 87
e 42 91
e 42 96
e 42 98
e 42 110
e 42 111
e 42 121
e 42 122
e 42 126
e 42 130
e 42 132
e 42 139
e 42 143
e 42 144
e 42 148
e 42 152
e 42 158
e 42 164
e 42 165
e 42 168
e 42 172
e 42 175
e 42 178
e 42 188
e 42 189
e 42 192
e 42 194
e 43 45
e 43 49
e 43 54
e 43 64
e 43 67
e 43 69
e 43 71
e 43 72
e 43 99
e 43 102
e 43 106
e 43 111
e 43 113
e 43 115
e 43 117
e 43 120
e 43 122
e 43 144
e 43 149
e 43 160
e 43 162
e 43 167
e 43 184
e 43 197
e 44 46
e 44 48
e 44 53
e 44 60
e 44 69
e 44 72
e 44 82
e 44 84
e 44 108
e 44 118
e 44 124
e 44 128
e 44 131
e 44 151
e 44 152
e 44 154
e 44 159
e 44 176
e 44 183
e 44 188
e 44 196
e 45 54
e 45 56
e 45 65
e 45 70
e 45 73
e 45 77
e 45 81
e 45 92
e 45 94
e 45 100
e 45 121
e 45 133
e 45 134
e 45 153
e 45 154
e 45 162
e 45 166
e 45 187
e 45 188
e 46 54
e 46 60
e 46 64
e 46 69
e 46 80
e 46 83
e 46 86
e 46 89
e 46 90
e 46 92
e 46 93
e 46 104
e 46 105
e 46 108
e 46 116
e 46 131
e 46 141
e 46 146
e 46 150
e 46 161
e 46 162
e 46 167
e 46 168
e 46 169
e 46 170
e 46 173
e 46 177
e 46 181
e 46 183
e 46 192
e 47 50
e 47 51
e 47 54
e 47 60
e 47 63
e 47 66
e 47 69
e 47 82
e 47 89
e 47 95
e 47 103
e 47 112
e 47 128
e 47 141
e 47 146
e 47 151
e 47 155
e 47 167
e 47 170
e 47 188
e 47 196
e 48 52
e 48 56
e 48 66
e 48 71
e 48 85
e 48 96
e 48 107
e 48 112
e 48 115
e 48 116
e 48 124
e 48 125
e 48 126
e 48 129
e 48 158
e 48 159
e 48 170
e 48 182
e 48 191
e 48 192
e 48 198
e 49 54
e 49 55
e 49 61
e 49 71
e 49 73
e 49 82
e 49 96
e 49 107
e 49 133
e 49 134
e 49 149
e 49 171
e 49 178
e 49 179
e 49 193
e 50 51
e 50 52
e 50 53
e 50 55
e 50 59
e 50 62
e 50 63
e 50 68
e 50 69
e 50 76
e 50 79
e 50 80
e 50 81
e 50 83
e 50 84
e 50 85
e 50 89
e 50 92
e 50 93
e 50 95
e 50 100
e 50 102
e 50 104
e 50 105
e 50 109
e 50 121
e 50 122
e 50 130
e 50 135
e 50 146
e 50 148
e 50 150
e 50 162
e 50 163
e 50 170
e 50 172
e 50 176
e 50 177
e 50 189
e 50 192
e 50 198
e 51 52
e 51 53
e 51 57
e 51 61
e 51 69
e 51 74
e 51 78
e 51 88
e 51 90
e 51 98
e 51 103
e 51 106
e 51 115
e 51 122
e 51 131
e 51 134
e 51 137
e 51 139
e 51 144
e 51 146
e 51 150
e 51 158
e 51 162
e 51 173
e 51 192
e 52 54
e 52 60
e 52 65
e 52 70
e 52 76
e 52 77
e 52 80
e 52 85
e 52 87
e 52 88
e 52 91
e 52 95
e 52 102
e 52 103
e 52 115
e 52 120
e 52 122
e 52 126
e 52 131
e 52 139
e 52 150
e 52 151
e 52 192
e 52 193
e 53 86
e 53 93
e 53 119
e 53 121
e 53 128
e 53 132
e 53 163
e 53 174
e 53 190
e 54 55
e 54 65
e 54 68
e 54 73
e 54 75
e 54 87
e 54 99
e 54 114
e 54 115
e 54 117
e 54 125
e 54 128
e 54 139
e 54 149
e 54 162
e 54 182
e 54 185
e 55 58
e 55 61
e 55 63
e 55 65
e 55 67
e 55 68
e 55 72
e 55 73
e 55 81
e 55 93
e 55 94
e 55 101
e 55 110
e 55 117
e 55 131
e 55 138
e 55 140
e 55 143
e 55 146
e 55 150
e 55 153
e 55 155
e 55 157
e 55 162
e 55 173
e 55 179
e 55 184
e 55 196
e 55 197
e 56 59
e 56 80
e 56 92
e 56 96
e 56 97
e 56 101
e 56 102
e 56 104
e 56 106
e 56 124
e 56 128
e 56 132
e 56 137
e 56 139
e 56 149
e 56 151
e 56 156
e 56 158
e 56 165
e 56 166
e 56 177
e 56 182
e 56 191
e 57 59
e 57 60
e 57 62
e 57 68
e 57 76
e 57 81
e 57 82
e 57 83
e 57 85
e 57 89
e 57 91
e 57 95
e 57 128
e 57 150
e 57 172
e 58 74
e 58 78
e 58 80
e 58 110
e 58 112
e 58 120
e 58 147
e 58 151
e 58 152
e 58 167
e 58 168
e 59 60
e 59 61
e 59 62
e 59 67
e 59 77
e 59 83
e 59 103
e 59 105
e 59 107
e 59 108
e 59 113
e 59 131
e 59 144
e 59 147
e 59 148
e 59 154
e 59 161
e 59 166
e 59 186
e 59 187
e 59 194
e 59 198
e 60 61
e 60 72
e 60 73
e 60 85
e 60 86
e 60 89
e 60 94
e 60 105
e 60 111
e 60 113
e 60 124
e 60 132
e 60 133
e 60 136
e 60 154
e 60 169
e 60 176
e 60 177
e 60 180
e 60 181
e 61 62
e 61 74
e 61 78
e 61 88
e 61 103
e 61 105
e 61 108
e 61 109
e 61 123
e 61 125
e 61 180
e 61 185
e 62 63
e 62 65
e 62 81
e 62 90
e 62 100
e 62 108
e 62 110
e 62 115
e 62 135
e 62 139
e 62 153
e 62 166
e 62 183
e 63 75
e 63 85
e 63 90
e 63 91
e 63 99
e 63 115
e 63 119
e 63 137
e 63 152
e 63 158
e 63 164
e 63 174
e 63 187
e 63 194
e 63 195
e 63 196
e 64 65
e 64 86
e 64 109
e 64 114
e 64 133
e 64 141
e 64 147
e 64 154
e 64 169
e 64 185
e 65 67
e 65 68
e 65 70
e 65 73
e 65 74
e 65 79
e 65 80
e 65 87
e 65 91
e 65 93
e 65 97
e 65 107
e 65 124
e 65 127
e 65 135
e 65 139
e 65 146
e 65 148
e 65 162
e 65 192
e 65 195
e 66 69
e 66 70
e 66 71
e 66 79
e 66 90
e 66 94
e 66 107
e 66 108
e 66 115
e 66 118
e 66 125
e 66 127
e 66 133
e 66 148
e 66 161
e 66 165
e 66 186
e 66 189
e 66 195
e 67 71
e 67 76
e 67 78
e 67 80
e 67 83
e 67 86
e 67 89
e 67 98
e 67 104
e 67 112
e 67 128
e 67 139
e 67 157
e 67 168
e 67 198
e 68 74
e 68 79
e 68 81
e 68 88
e 68 131
e 68 140
e 68 155
e 68 156
e 68 166
e 68 169
e 68 174
e 68 193
e 69 111
e 69 117
e 69 119
e 69 138
e 69 141
e 69 179
e 69 188
e 70 76
e 70 77
e 70 100
e 70 124
e 70 131
e 70 141
e 70 150
e 70 168
e 70 169
e 70 175
e 70 188
e 70 189
e 70 190
e 71 101
e 71 123
e 71 143
e 71 147
e 71 154
e 71 169
e 71 173
e 71 184
e 71 189
e 71 190
e 71 197
e 72 79
e 72 82
e 72 85
e 72 92
e 72 97
e 72 102
e 72 105
e 72 135
e 72 138
e 72 144
e 72 145
e 72 164
e 72 174
e 73 74
e 73 78
e 73 80
e 73 86
e 73 99
e 73 118
e 73 122
e 73 138
e 73 152
e 74 82
e 74 99
e 74 100
e 74 118
e 74 133
e 74 161
e 74 168
e 74 173
e 75 87
e 75 95
e 75 101
e 75 104
e 75 105
e 75 110
e 75 136
e 75 138
e 75 144
e 75 157
e 75 163
e 75 176
e 75 195
e 76 86
e 76 93
e 76 98
e 76 102
e 76 103
e 76 106
e 76 107
e 76 110
e 76 117
e 76 129
e 76 152
e 76 158
e 76 176
e 76 185
e 76 189
e 76 193
e 77 85
e 77 87
e 77 106
e 77 126
e 77 129
e 77 170
e 77 184
e 78 79
e 78 85
e 78 101
e 78 109
e 78 150
e 78 155
e 78 157
e 78 188
e 78 194
e 79 84
e 79 88
e 79 99
e 79 112
e 79 117
e 79 133
e 79 144
e 79 184
e 80 99
e 80 101
e 80 108
e 80 119
e 80 120
e 80 129
e 80 152
e 81 88
e 81 92
e 81 98
e 81 99
e 81 106
e 81 107
e 81 110
e 81 119
e 81 121
e 81 123
e 81 136
e 81 142
e 81 152
e 81 172
e 82 89
e 82 95
e 82 97
e 82 98
e 82 104
e 82 107
e 82 117
e 82 120
e 82 128
e 82 130
e 82 134
e 82 156
e 82 189
e 82 190
e 83 111
e 83 112
e 83 116
e 83 128
e 83 167
e 83 189
e 84 87
e 84 94
e 84 109
e 84 115
e 84 117
e 84 122
e 84 159
e 84 164
e 84 168
e 84 173
e 84 175
e 84 177
e 84 183
e 85 87
e 85 136
e 85 154
e 85 170
e 85 197
e 86 153
e 86 169
e 86 171
e 86 189
e 86 196
e 87 96
e 87 132
e 87 173
e 87 191
e 87 192
e 88 97
e 88 99
e 88 101
e 88 121
e 88 125
e 88 127
e 88 137
e 88 170
e 88 190
e 89 95
e 89 99
e 89 109
e 89 112
e 89 162
e 89 172
e 89 197
e 90 93
e 90 98
e 90 102
e 90 104
e 90 109
e 90 122
e 90 123
e 90 124
e 90 128
e 90 149
e 90 165
e 90 169
e 90 170
e 90 175
e 90 194
e 90 195
e 91 185
e 92 104
e 92 114
e 92 131
e 92 137
e 92 176
e 92 190
e 93 107
e 93 111
e 93 132
e 93 139
e 93 145
e 93 147
e 93 154
e 93 167
e 93 170
e 93 176
e 93 195
e 94 96
e 94 102
e 94 111
e 94 113
e 94 114
e 94 119
e 94 140
e 94 146
e 94 147
e 94 149
e 94 176
e 94 185
e 95 113
e 95 117
e 95 122
e 95 123
e 95 125
e 95 127
e 95 128
e 95 136
e 95 142
e 95 148
e 95 191
e 95 193
e 95 195
e 95 197
e 96 97
e 96 149
e 97 144
e 97 156
e 97 172
e 97 187
e 97 193
e 98 108
e 98 117
e 98 127
e 98 134
e 98 179
e 98 183
e 98 196
e 99 110
e 99 132
e 99 187
e 99 188
e 99 190
e 100 121
e 100 124
e 100 174
e 100 179
e 100 187
e 100 189
e 100 196
e 101 102
e 101 104
e 101 109
e 101 119
e 101 137
e 101 138
e 101 139
e 101 141
e 101 148
e 101 159
e 101 162
e 101 180
e 102 108
e 102 120
e 102 141
e 102 153
e 103 109
e 103 116
e 103 123
e 103 129
e 103 137
e 103 140
e 103 145
e 103 159
e 103 160
e 103 172
e 103 177
e 103 180
e 103 181
e 103 183
e 104 105
e 104 106
e 104 119
e 104 123
e 104 142
e 104 176
e 104 177
e 104 187
e 104 189
e 105 126
e 105 134
e 105 152
e 105 156
e 105 160
e 105 164
e 105 167
e 105 168
e 105 175
e 105 181
e 105 183
e 105 191
e 106 109
e 106 119
e 106 135
e 106 146
e 106 151
e 106 161
e 106 169
e 106 180
e 106 196
e 107 135
e 107 166
e 107 187
e 107 196
e 108 115
e 108 125
e 108 162
e 108 165
e 108 194
e 109 119
e 109 129
e 109 148
e 109 160
e 109 162
e 109 167
e 109 186
e 110 148
e 110 165
e 110 166
e 110 172
e 110 175
e 110 181
e 110 185
e 110 195
e 111 125
e 111 151
e 112 124
e 112 140
e 112 146
e 112 153
e 112 174
e 113 139
e 113 147
e 113 149
e 113 150
e 113 152
e 113 174
e 113 189
e 113 190
e 114 116
e 114 119
e 114 127
e 114 132
e 114 142
e 114 149
e 114 152
e 114 171
e 114 177
e 114 178
e 114 192
e 114 197
e 115 130
e 115 146
e 115 167
e 115 179
e 115 198
e 116 143
e 116 146
e 116 161
e 116 178
e 116 183
e 117 144
e 117 161
e 117 168
e 117 175
e 117 184
e 117 190
e 117 197
e 118 120
e 118 121
e 118 142
e 118 162
e 118 175
e 118 183
e 118 193
e 119 121
e 119 135
e 119 139
e 119 146
e 119 148
e 119 194
e 120 133
e 120 137
e 120 143
e 120 157
e 120 171
e 120 184
e 120 186
e 120 188
e 120 190
e 120 198
e 121 149
e 121 166
e 121 171
e 121 180
e 122 124
e 122 132
e 122 149
e 122 183
e 122 193
e 124 130
e 124 134
e 124 142
e 124 151
e 124 171
e 125 126
e 125 134
e 125 136
e 125 166
e 125 175
e 125 180
e 126 127
e 126 132
e 126 155
e 126 193
e 127 130
e 127 135
e 127 155
e 127 156
e 127 169
e 127 185
e 128 136
e 128 141
e 128 163
e 128 186
e 128 197
e 129 136
e 129 153
e 130 148
e 130 157
e 130 182
e 131 140
e 131 143
e 131 149
e 131 174
e 131 191
e 132 161
e 132 167
e 132 188
e 133 143
e 133 164
e 133 198
e 134 158
e 134 160
e 134 193
e 134 198
e 135 138
e 135 140
e 135 141
e 135 142
e 135 144
e 135 171
e 135 173
e 136 145
e 136 155
e 136 168
e 137 142
e 137 195
e 138 160
e 138 186
e 139 150
e 139 152
e 139 173
e 139 194
e 140 159
e 140 194
e 141 163
e 143 159
e 144 165
e 144 171
e 145 191
e 146 168
e 146 186
e 147 195
e 148 153
e 148 161
e 148 193
e 149 159
e 149 178
e 150 167
e 151 157
e 151 163
e 151 183
e 151 194
e 152 159
e 152 164
e 152 181
e 152 188
e 153 162
e 153 177
e 153 187
e 153 190
e 153 191
e 154 177
e 154 185
e 155 156
e 155 170
e 155 177
e 155 180
e 155 196
e 156 160
e 156 182
e 158 163
e 158 196
e 158 197
e 159 162
e 159 168
e 159 170
e 159 178
e 160 169
e 160 181
e 160 190
e 160 195
e 161 166
e 161 178
e 162 188
e 163 183
e 163 187
e 163 196
e 164 191
e 164 197
e 165 173
e 165 181
e 166 168
e 166 178
e 167 173
e 167 178
e 169 170
e 169 184
e 169 188
e 170 176
e 170 182
e 170 186
e 172 181
e 172 184
e 172 191
e 173 184
e 173 186
e 173 187
e 174 175
e 174 179
e 174 194
e 176 190
e 177 179
e 177 195
e 179 185
e 179 197
e 184 198
e 185 186
e 189 192
e 189 196
e 192 198
e 193 195
